\ Model QCP
\ LP format - for model browsing. Use MPS format to capture full model detail.
Minimize
  z + 1.27 y
Subject To
 Cut_0: z + [ 0.2588726513569934 y ^2 ] >= 3022.586638830897
 Cut_1: z + [ 0.0121555915721232 y ^2 ] >= 2380.628849270664
 Cut_2: z + [ ] >= 2334
Bounds
 2334 <= z <= 4687
 31.49603149604724 <= y <= 61.93545026880809
End
